p wcnf 560 1456
w -2 1.387726 0
w 2 0.720603 0
w -3 0.531414 0
w 3 1.881771 0
w -5 0.633016 0
w 5 1.579740 0
w -6 0.679249 0
w 6 1.472213 0
w -8 0.950167 0
w 8 1.052447 0
w -9 0.668321 0
w 9 1.496287 0
w -11 1.318397 0
w 11 0.758497 0
w -12 1.190249 0
w 12 0.840161 0
w -14 0.996855 0
w 14 1.003155 0
w -15 1.058761 0
w 15 0.944500 0
w -17 1.717805 0
w 17 0.582138 0
w -18 1.611502 0
w 18 0.620539 0
w -20 0.528415 0
w 20 1.892453 0
w -21 0.988983 0
w 21 1.011140 0
w -23 1.637391 0
w 23 0.610728 0
w -24 2.429361 0
w 24 0.411631 0
w -26 2.037909 0
w 26 0.490699 0
w -27 2.308457 0
w 27 0.433190 0
w -29 0.602896 0
w 29 1.658661 0
w -30 2.595315 0
w 30 0.385310 0
w -32 0.629127 0
w 32 1.589503 0
w -33 0.602597 0
w 33 1.659485 0
w -35 1.915987 0
w 35 0.521924 0
w -36 1.964934 0
w 36 0.508923 0
w -38 2.030108 0
w 38 0.492585 0
w -39 0.487529 0
w 39 2.051161 0
w -41 1.331613 0
w 41 0.750969 0
w -43 0.992907 0
w 43 1.007143 0
w -44 0.505984 0
w 44 1.976346 0
w -46 1.160584 0
w 46 0.861635 0
w -47 1.977686 0
w 47 0.505641 0
w -49 1.018946 0
w 49 0.981406 0
w -50 1.715761 0
w 50 0.582832 0
w -52 1.712536 0
w 52 0.583929 0
w -53 1.346287 0
w 53 0.742784 0
w -55 0.368421 0
w 55 2.714284 0
w -56 2.248087 0
w 56 0.444823 0
w -58 1.015372 0
w 58 0.984861 0
w -59 0.652537 0
w 59 1.532479 0
w -61 0.774799 0
w 61 1.290657 0
w -62 0.928068 0
w 62 1.077507 0
w -64 0.477620 0
w 64 2.093714 0
w -65 0.732358 0
w 65 1.365452 0
w -67 2.702925 0
w 67 0.369970 0
w -68 1.733165 0
w 68 0.576979 0
w -70 1.754133 0
w 70 0.570082 0
w -71 0.761883 0
w 71 1.312537 0
w -73 2.233028 0
w 73 0.447822 0
w -74 0.919545 0
w 74 1.087494 0
w -76 0.459444 0
w 76 2.176546 0
w -77 0.793821 0
w 77 1.259730 0
w -79 0.580016 0
w 79 1.724092 0
w -80 1.041647 0
w 80 0.960018 0
w -82 0.752663 0
w 82 1.328616 0
w -84 1.464183 0
w 84 0.682975 0
w -85 0.368048 0
w 85 2.717036 0
w -87 2.605197 0
w 87 0.383848 0
w -88 0.385187 0
w 88 2.596143 0
w -90 0.673380 0
w 90 1.485047 0
w -91 0.669665 0
w 91 1.493285 0
w -93 0.815552 0
w 93 1.226163 0
w -94 0.453159 0
w 94 2.206732 0
w -96 2.454122 0
w 96 0.407478 0
w -97 0.513980 0
w 97 1.945601 0
w -99 0.374284 0
w 99 2.671769 0
w -100 0.531917 0
w 100 1.879992 0
w -102 1.811073 0
w 102 0.552159 0
w -103 0.510673 0
w 103 1.958199 0
w -105 2.328878 0
w 105 0.429391 0
w -106 1.658917 0
w 106 0.602803 0
w -108 0.891869 0
w 108 1.121241 0
w -109 0.391226 0
w 109 2.556070 0
w -111 2.575125 0
w 111 0.388331 0
w -112 0.744413 0
w 112 1.343340 0
w -114 1.497775 0
w 114 0.667657 0
w -115 0.943041 0
w 115 1.060400 0
w -117 0.471671 0
w 117 2.120120 0
w -118 1.727836 0
w 118 0.578759 0
w -120 1.576077 0
w 120 0.634487 0
w -121 0.541566 0
w 121 1.846498 0
w -123 0.762670 0
w 123 1.311183 0
w -125 0.369674 0
w 125 2.705085 0
w -126 0.537810 0
w 126 1.859392 0
w -128 1.338918 0
w 128 0.746872 0
w -129 0.488909 0
w 129 2.045370 0
w -131 1.366974 0
w 131 0.731543 0
w -132 0.555218 0
w 132 1.801095 0
w -134 0.941910 0
w 134 1.061673 0
w -135 2.512332 0
w 135 0.398036 0
w -137 1.480206 0
w 137 0.675581 0
w -138 1.197632 0
w 138 0.834981 0
w -140 1.733789 0
w 140 0.576771 0
w -141 0.537411 0
w 141 1.860774 0
w -143 0.872012 0
w 143 1.146773 0
w -144 1.255793 0
w 144 0.796310 0
w -146 1.516648 0
w 146 0.659349 0
w -147 1.607487 0
w 147 0.622089 0
w -149 2.200271 0
w 149 0.454490 0
w -150 0.472909 0
w 150 2.114570 0
w -152 0.802079 0
w 152 1.246759 0
w -153 1.460900 0
w 153 0.684509 0
w -155 1.114464 0
w 155 0.897293 0
w -156 2.533569 0
w 156 0.394700 0
w -158 0.391221 0
w 158 2.556099 0
w -159 1.537798 0
w 159 0.650280 0
w -161 1.301729 0
w 161 0.768209 0
w -162 2.221217 0
w 162 0.450204 0
w -164 0.762511 0
w 164 1.311457 0
w -166 0.553074 0
w 166 1.808076 0
w -167 0.885487 0
w 167 1.129322 0
w -169 1.117742 0
w 169 0.894661 0
w -170 0.460884 0
w 170 2.169745 0
w -172 0.649743 0
w 172 1.539069 0
w -173 0.796539 0
w 173 1.255431 0
w -175 0.987293 0
w 175 1.012870 0
w -176 0.525271 0
w 176 1.903779 0
w -178 0.440730 0
w 178 2.268961 0
w -179 0.427835 0
w 179 2.337352 0
w -181 0.375207 0
w 181 2.665198 0
w -182 0.567000 0
w 182 1.763668 0
w -184 0.402931 0
w 184 2.481816 0
w -185 1.380503 0
w 185 0.724374 0
w -187 0.468002 0
w 187 2.136743 0
w -188 2.569567 0
w 188 0.389171 0
w -190 0.611684 0
w 190 1.634830 0
w -191 1.099868 0
w 191 0.909200 0
w -193 0.552916 0
w 193 1.808593 0
w -194 0.574546 0
w 194 1.740504 0
w -196 0.425313 0
w 196 2.351211 0
w -197 0.550352 0
w 197 1.817018 0
w -199 0.443876 0
w 199 2.252883 0
w -200 0.654212 0
w 200 1.528556 0
w -202 2.334548 0
w 202 0.428349 0
w -203 0.615916 0
w 203 1.623597 0
w -205 1.146234 0
w 205 0.872422 0
w -207 0.428512 0
w 207 2.333656 0
w -208 1.899901 0
w 208 0.526343 0
w -210 1.565271 0
w 210 0.638867 0
w -211 1.501056 0
w 211 0.666198 0
w -213 1.454633 0
w 213 0.687458 0
w -214 0.515952 0
w 214 1.938164 0
w -216 1.037727 0
w 216 0.963644 0
w -217 0.807216 0
w 217 1.238826 0
w -219 0.508059 0
w 219 1.968277 0
w -220 0.619783 0
w 220 1.613467 0
w -222 0.608134 0
w 222 1.644374 0
w -223 1.774163 0
w 223 0.563646 0
w -225 0.438793 0
w 225 2.278977 0
w -226 0.634243 0
w 226 1.576684 0
w -228 0.798035 0
w 228 1.253079 0
w -229 0.838432 0
w 229 1.192702 0
w -231 2.574723 0
w 231 0.388391 0
w -232 0.626938 0
w 232 1.595055 0
w -234 0.607694 0
w 234 1.645564 0
w -235 0.589129 0
w 235 1.697421 0
w -237 1.272648 0
w 237 0.785763 0
w -238 1.061068 0
w 238 0.942446 0
w -240 1.238032 0
w 240 0.807733 0
w -241 0.894303 0
w 241 1.118190 0
w -243 1.034022 0
w 243 0.967098 0
w -244 1.045357 0
w 244 0.956611 0
w -246 1.271449 0
w 246 0.786504 0
w -248 0.564610 0
w 248 1.771135 0
w -249 0.567903 0
w 249 1.760864 0
w -251 1.068570 0
w 251 0.935830 0
w -252 0.867098 0
w 252 1.153272 0
w -254 0.770481 0
w 254 1.297891 0
w -255 0.390040 0
w 255 2.563840 0
w -257 0.415146 0
w 257 2.408789 0
w -258 1.438526 0
w 258 0.695156 0
w -260 1.514551 0
w 260 0.660262 0
w -261 0.779048 0
w 261 1.283618 0
w -263 2.567530 0
w 263 0.389479 0
w -264 0.553309 0
w 264 1.807308 0
w -266 0.724586 0
w 266 1.380098 0
w -267 0.947696 0
w 267 1.055190 0
w -269 1.714015 0
w 269 0.583426 0
w -270 0.486686 0
w 270 2.054713 0
w -272 2.321353 0
w 272 0.430783 0
w -273 0.749629 0
w 273 1.333994 0
w -275 0.696325 0
w 275 1.436112 0
w -276 1.231502 0
w 276 0.812017 0
w -278 0.504514 0
w 278 1.982107 0
w -279 0.760364 0
w 279 1.315160 0
w -281 1.841485 0
w 281 0.543040 0
w -282 0.637014 0
w 282 1.569825 0
w -284 0.496934 0
w 284 2.012340 0
w -285 2.035181 0
w 285 0.491357 0
w -287 0.443371 0
w 287 2.255446 0
w -289 1.232784 0
w 289 0.811172 0
w -290 2.652900 0
w 290 0.376946 0
w -292 1.354212 0
w 292 0.738437 0
w -293 2.130638 0
w 293 0.469343 0
w -295 1.137821 0
w 295 0.878872 0
w -296 0.719153 0
w 296 1.390524 0
w -298 0.411251 0
w 298 2.431603 0
w -299 2.460095 0
w 299 0.406488 0
w -301 2.440298 0
w 301 0.409786 0
w -302 0.530306 0
w 302 1.885704 0
w -304 0.611393 0
w 304 1.635609 0
w -305 0.640743 0
w 305 1.560688 0
w -307 0.812544 0
w 307 1.230702 0
w -308 0.547236 0
w 308 1.827364 0
w -310 2.266058 0
w 310 0.441295 0
w -311 1.166659 0
w 311 0.857149 0
w -313 0.535486 0
w 313 1.867462 0
w -314 2.251175 0
w 314 0.444212 0
w -316 0.997473 0
w 316 1.002534 0
w -317 1.287567 0
w 317 0.776658 0
w -319 0.649883 0
w 319 1.538740 0
w -320 0.840888 0
w 320 1.189218 0
w -322 0.407470 0
w 322 2.454166 0
w -323 1.628310 0
w 323 0.614134 0
w -325 1.388606 0
w 325 0.720147 0
w -326 1.049555 0
w 326 0.952784 0
w -328 2.600217 0
w 328 0.384583 0
w -330 1.527655 0
w 330 0.654598 0
w -331 1.590825 0
w 331 0.628604 0
w -333 2.293131 0
w 333 0.436085 0
w -334 0.427908 0
w 334 2.336949 0
w -336 0.589050 0
w 336 1.697649 0
w -337 2.278278 0
w 337 0.438928 0
w -339 1.474979 0
w 339 0.677976 0
w -340 1.103480 0
w 340 0.906224 0
w -342 1.712567 0
w 342 0.583919 0
w -343 1.204304 0
w 343 0.830355 0
w -345 0.589264 0
w 345 1.697033 0
w -346 0.470500 0
w 346 2.125398 0
w -348 1.766037 0
w 348 0.566240 0
w -349 0.836808 0
w 349 1.195018 0
w -351 0.443600 0
w 351 2.254285 0
w -352 0.655985 0
w 352 1.524426 0
w -354 1.330883 0
w 354 0.751381 0
w -355 0.483970 0
w 355 2.066246 0
w -357 2.332161 0
w 357 0.428787 0
w -358 1.661109 0
w 358 0.602007 0
w -360 2.140917 0
w 360 0.467090 0
w -361 2.055812 0
w 361 0.486426 0
w -363 1.303180 0
w 363 0.767354 0
w -364 2.329580 0
w 364 0.429262 0
w -366 0.463307 0
w 366 2.158396 0
w -367 1.476018 0
w 367 0.677499 0
w -369 0.633740 0
w 369 1.577934 0
w -371 2.102976 0
w 371 0.475517 0
w -372 0.439052 0
w 372 2.277635 0
w -374 0.799305 0
w 374 1.251087 0
w -375 1.314710 0
w 375 0.760624 0
w -377 1.434934 0
w 377 0.696896 0
w -378 1.185464 0
w 378 0.843552 0
w -380 0.493646 0
w 380 2.025741 0
w -381 2.640064 0
w 381 0.378779 0
w -383 0.564563 0
w 383 1.771281 0
w -384 0.512538 0
w 384 1.951073 0
w -386 1.476888 0
w 386 0.677099 0
w -387 1.097483 0
w 387 0.911176 0
w -389 0.532567 0
w 389 1.877699 0
w -390 0.584598 0
w 390 1.710577 0
w -392 2.054934 0
w 392 0.486634 0
w -393 2.673178 0
w 393 0.374087 0
w -395 0.511181 0
w 395 1.956253 0
w -396 1.790468 0
w 396 0.558513 0
w -398 0.768241 0
w 398 1.301675 0
w -399 0.422926 0
w 399 2.364481 0
w -401 1.853913 0
w 401 0.539400 0
w -402 0.387329 0
w 402 2.581786 0
w -404 1.181166 0
w 404 0.846621 0
w -405 1.845598 0
w 405 0.541830 0
w -407 2.033697 0
w 407 0.491715 0
w -408 1.634849 0
w 408 0.611677 0
w -410 0.404812 0
w 410 2.470284 0
w -412 1.679293 0
w 412 0.595489 0
w -413 0.717548 0
w 413 1.393635 0
w -415 1.079714 0
w 415 0.926171 0
w -416 1.790277 0
w 416 0.558573 0
w -418 0.473792 0
w 418 2.110632 0
w -419 2.023274 0
w 419 0.494249 0
w -421 2.693090 0
w 421 0.371321 0
w -422 2.121868 0
w 422 0.471283 0
w -424 2.167866 0
w 424 0.461283 0
w -425 0.503558 0
w 425 1.985867 0
w -427 1.350442 0
w 427 0.740498 0
w -428 1.297421 0
w 428 0.770760 0
w -430 2.302644 0
w 430 0.434283 0
w -431 1.232750 0
w 431 0.811195 0
w -433 1.292732 0
w 433 0.773556 0
w -434 0.454820 0
w 434 2.198671 0
w -436 0.656904 0
w 436 1.522292 0
w -437 1.053280 0
w 437 0.949415 0
w -439 0.671750 0
w 439 1.488650 0
w -440 0.549592 0
w 440 1.819531 0
w -442 1.262626 0
w 442 0.792000 0
w -443 1.275471 0
w 443 0.784024 0
w -445 0.800143 0
w 445 1.249777 0
w -446 1.995097 0
w 446 0.501229 0
w -448 0.606033 0
w 448 1.650075 0
w -449 1.676539 0
w 449 0.596467 0
w -451 0.986046 0
w 451 1.014151 0
w -453 2.345362 0
w 453 0.426373 0
w -454 1.112768 0
w 454 0.898660 0
w -456 1.352087 0
w 456 0.739597 0
w -457 2.324915 0
w 457 0.430123 0
w -459 0.643461 0
w 459 1.554095 0
w -460 0.506571 0
w 460 1.974056 0
w -462 0.383201 0
w 462 2.609595 0
w -463 1.190544 0
w 463 0.839952 0
w -465 1.438754 0
w 465 0.695046 0
w -466 0.595030 0
w 466 1.680588 0
w -468 0.489341 0
w 468 2.043565 0
w -469 1.058016 0
w 469 0.945166 0
w -471 0.573325 0
w 471 1.744212 0
w -472 1.080232 0
w 472 0.925727 0
w -474 0.576265 0
w 474 1.735311 0
w -475 1.204491 0
w 475 0.830226 0
w -477 1.827460 0
w 477 0.547208 0
w -478 0.625702 0
w 478 1.598206 0
w -480 2.430949 0
w 480 0.411362 0
w -481 0.717151 0
w 481 1.394407 0
w -483 2.203165 0
w 483 0.453893 0
w -484 1.063159 0
w 484 0.940593 0
w -486 0.521254 0
w 486 1.918450 0
w -487 1.294962 0
w 487 0.772223 0
w -489 0.606328 0
w 489 1.649273 0
w -490 0.622810 0
w 490 1.605626 0
w -492 2.020806 0
w 492 0.494852 0
w -494 0.687389 0
w 494 1.454780 0
w -495 1.089623 0
w 495 0.917748 0
w -497 0.546871 0
w 497 1.828583 0
w -498 1.235704 0
w 498 0.809256 0
w -500 1.198434 0
w 500 0.834422 0
w -501 0.586966 0
w 501 1.703675 0
w -503 0.464407 0
w 503 2.153286 0
w -504 0.404199 0
w 504 2.474027 0
w -506 0.718268 0
w 506 1.392238 0
w -507 0.605308 0
w 507 1.652052 0
w -509 2.179150 0
w 509 0.458895 0
w -510 0.588736 0
w 510 1.698553 0
w -512 1.943362 0
w 512 0.514572 0
w -513 0.759479 0
w 513 1.316692 0
w -515 1.547084 0
w 515 0.646377 0
w -516 0.480236 0
w 516 2.082307 0
w -518 1.091162 0
w 518 0.916454 0
w -519 0.647085 0
w 519 1.545393 0
w -521 2.009831 0
w 521 0.497554 0
w -522 0.500161 0
w 522 1.999358 0
w -524 1.745651 0
w 524 0.572852 0
w -525 1.013474 0
w 525 0.986705 0
w -527 1.129893 0
w 527 0.885040 0
w -528 1.888401 0
w 528 0.529548 0
w -530 1.404366 0
w 530 0.712065 0
w -531 0.930503 0
w 531 1.074688 0
w -533 0.760662 0
w 533 1.314645 0
w -535 1.766312 0
w 535 0.566151 0
w -537 1.069494 0
w 537 0.935021 0
w -539 1.141378 0
w 539 0.876134 0
w -541 0.539423 0
w 541 1.853832 0
w -543 2.485398 0
w 543 0.402350 0
w -545 2.712278 0
w 545 0.368694 0
w -547 1.693359 0
w 547 0.590542 0
w -549 1.254934 0
w 549 0.796854 0
w -551 1.272190 0
w 551 0.786046 0
w -553 0.814132 0
w 553 1.228302 0
w -555 0.370295 0
w 555 2.700551 0
w -557 2.247549 0
w 557 0.444929 0
w -559 1.747074 0
w 559 0.572386 0
2 1 4 0
2 -1 -4 0
-2 1 -4 0
-2 -1 4 0
3 1 42 0
3 -1 -42 0
-3 1 -42 0
-3 -1 42 0
5 4 7 0
5 -4 -7 0
-5 4 -7 0
-5 -4 7 0
6 4 45 0
6 -4 -45 0
-6 4 -45 0
-6 -4 45 0
8 7 10 0
8 -7 -10 0
-8 7 -10 0
-8 -7 10 0
9 7 48 0
9 -7 -48 0
-9 7 -48 0
-9 -7 48 0
11 10 13 0
11 -10 -13 0
-11 10 -13 0
-11 -10 13 0
12 10 51 0
12 -10 -51 0
-12 10 -51 0
-12 -10 51 0
14 13 16 0
14 -13 -16 0
-14 13 -16 0
-14 -13 16 0
15 13 54 0
15 -13 -54 0
-15 13 -54 0
-15 -13 54 0
17 16 19 0
17 -16 -19 0
-17 16 -19 0
-17 -16 19 0
18 16 57 0
18 -16 -57 0
-18 16 -57 0
-18 -16 57 0
20 19 22 0
20 -19 -22 0
-20 19 -22 0
-20 -19 22 0
21 19 60 0
21 -19 -60 0
-21 19 -60 0
-21 -19 60 0
23 22 25 0
23 -22 -25 0
-23 22 -25 0
-23 -22 25 0
24 22 63 0
24 -22 -63 0
-24 22 -63 0
-24 -22 63 0
26 25 28 0
26 -25 -28 0
-26 25 -28 0
-26 -25 28 0
27 25 66 0
27 -25 -66 0
-27 25 -66 0
-27 -25 66 0
29 28 31 0
29 -28 -31 0
-29 28 -31 0
-29 -28 31 0
30 28 69 0
30 -28 -69 0
-30 28 -69 0
-30 -28 69 0
32 31 34 0
32 -31 -34 0
-32 31 -34 0
-32 -31 34 0
33 31 72 0
33 -31 -72 0
-33 31 -72 0
-33 -31 72 0
35 34 37 0
35 -34 -37 0
-35 34 -37 0
-35 -34 37 0
36 34 75 0
36 -34 -75 0
-36 34 -75 0
-36 -34 75 0
38 37 40 0
38 -37 -40 0
-38 37 -40 0
-38 -37 40 0
39 37 78 0
39 -37 -78 0
-39 37 -78 0
-39 -37 78 0
41 40 81 0
41 -40 -81 0
-41 40 -81 0
-41 -40 81 0
43 42 45 0
43 -42 -45 0
-43 42 -45 0
-43 -42 45 0
44 42 83 0
44 -42 -83 0
-44 42 -83 0
-44 -42 83 0
46 45 48 0
46 -45 -48 0
-46 45 -48 0
-46 -45 48 0
47 45 86 0
47 -45 -86 0
-47 45 -86 0
-47 -45 86 0
49 48 51 0
49 -48 -51 0
-49 48 -51 0
-49 -48 51 0
50 48 89 0
50 -48 -89 0
-50 48 -89 0
-50 -48 89 0
52 51 54 0
52 -51 -54 0
-52 51 -54 0
-52 -51 54 0
53 51 92 0
53 -51 -92 0
-53 51 -92 0
-53 -51 92 0
55 54 57 0
55 -54 -57 0
-55 54 -57 0
-55 -54 57 0
56 54 95 0
56 -54 -95 0
-56 54 -95 0
-56 -54 95 0
58 57 60 0
58 -57 -60 0
-58 57 -60 0
-58 -57 60 0
59 57 98 0
59 -57 -98 0
-59 57 -98 0
-59 -57 98 0
61 60 63 0
61 -60 -63 0
-61 60 -63 0
-61 -60 63 0
62 60 101 0
62 -60 -101 0
-62 60 -101 0
-62 -60 101 0
64 63 66 0
64 -63 -66 0
-64 63 -66 0
-64 -63 66 0
65 63 104 0
65 -63 -104 0
-65 63 -104 0
-65 -63 104 0
67 66 69 0
67 -66 -69 0
-67 66 -69 0
-67 -66 69 0
68 66 107 0
68 -66 -107 0
-68 66 -107 0
-68 -66 107 0
70 69 72 0
70 -69 -72 0
-70 69 -72 0
-70 -69 72 0
71 69 110 0
71 -69 -110 0
-71 69 -110 0
-71 -69 110 0
73 72 75 0
73 -72 -75 0
-73 72 -75 0
-73 -72 75 0
74 72 113 0
74 -72 -113 0
-74 72 -113 0
-74 -72 113 0
76 75 78 0
76 -75 -78 0
-76 75 -78 0
-76 -75 78 0
77 75 116 0
77 -75 -116 0
-77 75 -116 0
-77 -75 116 0
79 78 81 0
79 -78 -81 0
-79 78 -81 0
-79 -78 81 0
80 78 119 0
80 -78 -119 0
-80 78 -119 0
-80 -78 119 0
82 81 122 0
82 -81 -122 0
-82 81 -122 0
-82 -81 122 0
84 83 86 0
84 -83 -86 0
-84 83 -86 0
-84 -83 86 0
85 83 124 0
85 -83 -124 0
-85 83 -124 0
-85 -83 124 0
87 86 89 0
87 -86 -89 0
-87 86 -89 0
-87 -86 89 0
88 86 127 0
88 -86 -127 0
-88 86 -127 0
-88 -86 127 0
90 89 92 0
90 -89 -92 0
-90 89 -92 0
-90 -89 92 0
91 89 130 0
91 -89 -130 0
-91 89 -130 0
-91 -89 130 0
93 92 95 0
93 -92 -95 0
-93 92 -95 0
-93 -92 95 0
94 92 133 0
94 -92 -133 0
-94 92 -133 0
-94 -92 133 0
96 95 98 0
96 -95 -98 0
-96 95 -98 0
-96 -95 98 0
97 95 136 0
97 -95 -136 0
-97 95 -136 0
-97 -95 136 0
99 98 101 0
99 -98 -101 0
-99 98 -101 0
-99 -98 101 0
100 98 139 0
100 -98 -139 0
-100 98 -139 0
-100 -98 139 0
102 101 104 0
102 -101 -104 0
-102 101 -104 0
-102 -101 104 0
103 101 142 0
103 -101 -142 0
-103 101 -142 0
-103 -101 142 0
105 104 107 0
105 -104 -107 0
-105 104 -107 0
-105 -104 107 0
106 104 145 0
106 -104 -145 0
-106 104 -145 0
-106 -104 145 0
108 107 110 0
108 -107 -110 0
-108 107 -110 0
-108 -107 110 0
109 107 148 0
109 -107 -148 0
-109 107 -148 0
-109 -107 148 0
111 110 113 0
111 -110 -113 0
-111 110 -113 0
-111 -110 113 0
112 110 151 0
112 -110 -151 0
-112 110 -151 0
-112 -110 151 0
114 113 116 0
114 -113 -116 0
-114 113 -116 0
-114 -113 116 0
115 113 154 0
115 -113 -154 0
-115 113 -154 0
-115 -113 154 0
117 116 119 0
117 -116 -119 0
-117 116 -119 0
-117 -116 119 0
118 116 157 0
118 -116 -157 0
-118 116 -157 0
-118 -116 157 0
120 119 122 0
120 -119 -122 0
-120 119 -122 0
-120 -119 122 0
121 119 160 0
121 -119 -160 0
-121 119 -160 0
-121 -119 160 0
123 122 163 0
123 -122 -163 0
-123 122 -163 0
-123 -122 163 0
125 124 127 0
125 -124 -127 0
-125 124 -127 0
-125 -124 127 0
126 124 165 0
126 -124 -165 0
-126 124 -165 0
-126 -124 165 0
128 127 130 0
128 -127 -130 0
-128 127 -130 0
-128 -127 130 0
129 127 168 0
129 -127 -168 0
-129 127 -168 0
-129 -127 168 0
131 130 133 0
131 -130 -133 0
-131 130 -133 0
-131 -130 133 0
132 130 171 0
132 -130 -171 0
-132 130 -171 0
-132 -130 171 0
134 133 136 0
134 -133 -136 0
-134 133 -136 0
-134 -133 136 0
135 133 174 0
135 -133 -174 0
-135 133 -174 0
-135 -133 174 0
137 136 139 0
137 -136 -139 0
-137 136 -139 0
-137 -136 139 0
138 136 177 0
138 -136 -177 0
-138 136 -177 0
-138 -136 177 0
140 139 142 0
140 -139 -142 0
-140 139 -142 0
-140 -139 142 0
141 139 180 0
141 -139 -180 0
-141 139 -180 0
-141 -139 180 0
143 142 145 0
143 -142 -145 0
-143 142 -145 0
-143 -142 145 0
144 142 183 0
144 -142 -183 0
-144 142 -183 0
-144 -142 183 0
146 145 148 0
146 -145 -148 0
-146 145 -148 0
-146 -145 148 0
147 145 186 0
147 -145 -186 0
-147 145 -186 0
-147 -145 186 0
149 148 151 0
149 -148 -151 0
-149 148 -151 0
-149 -148 151 0
150 148 189 0
150 -148 -189 0
-150 148 -189 0
-150 -148 189 0
152 151 154 0
152 -151 -154 0
-152 151 -154 0
-152 -151 154 0
153 151 192 0
153 -151 -192 0
-153 151 -192 0
-153 -151 192 0
155 154 157 0
155 -154 -157 0
-155 154 -157 0
-155 -154 157 0
156 154 195 0
156 -154 -195 0
-156 154 -195 0
-156 -154 195 0
158 157 160 0
158 -157 -160 0
-158 157 -160 0
-158 -157 160 0
159 157 198 0
159 -157 -198 0
-159 157 -198 0
-159 -157 198 0
161 160 163 0
161 -160 -163 0
-161 160 -163 0
-161 -160 163 0
162 160 201 0
162 -160 -201 0
-162 160 -201 0
-162 -160 201 0
164 163 204 0
164 -163 -204 0
-164 163 -204 0
-164 -163 204 0
166 165 168 0
166 -165 -168 0
-166 165 -168 0
-166 -165 168 0
167 165 206 0
167 -165 -206 0
-167 165 -206 0
-167 -165 206 0
169 168 171 0
169 -168 -171 0
-169 168 -171 0
-169 -168 171 0
170 168 209 0
170 -168 -209 0
-170 168 -209 0
-170 -168 209 0
172 171 174 0
172 -171 -174 0
-172 171 -174 0
-172 -171 174 0
173 171 212 0
173 -171 -212 0
-173 171 -212 0
-173 -171 212 0
175 174 177 0
175 -174 -177 0
-175 174 -177 0
-175 -174 177 0
176 174 215 0
176 -174 -215 0
-176 174 -215 0
-176 -174 215 0
178 177 180 0
178 -177 -180 0
-178 177 -180 0
-178 -177 180 0
179 177 218 0
179 -177 -218 0
-179 177 -218 0
-179 -177 218 0
181 180 183 0
181 -180 -183 0
-181 180 -183 0
-181 -180 183 0
182 180 221 0
182 -180 -221 0
-182 180 -221 0
-182 -180 221 0
184 183 186 0
184 -183 -186 0
-184 183 -186 0
-184 -183 186 0
185 183 224 0
185 -183 -224 0
-185 183 -224 0
-185 -183 224 0
187 186 189 0
187 -186 -189 0
-187 186 -189 0
-187 -186 189 0
188 186 227 0
188 -186 -227 0
-188 186 -227 0
-188 -186 227 0
190 189 192 0
190 -189 -192 0
-190 189 -192 0
-190 -189 192 0
191 189 230 0
191 -189 -230 0
-191 189 -230 0
-191 -189 230 0
193 192 195 0
193 -192 -195 0
-193 192 -195 0
-193 -192 195 0
194 192 233 0
194 -192 -233 0
-194 192 -233 0
-194 -192 233 0
196 195 198 0
196 -195 -198 0
-196 195 -198 0
-196 -195 198 0
197 195 236 0
197 -195 -236 0
-197 195 -236 0
-197 -195 236 0
199 198 201 0
199 -198 -201 0
-199 198 -201 0
-199 -198 201 0
200 198 239 0
200 -198 -239 0
-200 198 -239 0
-200 -198 239 0
202 201 204 0
202 -201 -204 0
-202 201 -204 0
-202 -201 204 0
203 201 242 0
203 -201 -242 0
-203 201 -242 0
-203 -201 242 0
205 204 245 0
205 -204 -245 0
-205 204 -245 0
-205 -204 245 0
207 206 209 0
207 -206 -209 0
-207 206 -209 0
-207 -206 209 0
208 206 247 0
208 -206 -247 0
-208 206 -247 0
-208 -206 247 0
210 209 212 0
210 -209 -212 0
-210 209 -212 0
-210 -209 212 0
211 209 250 0
211 -209 -250 0
-211 209 -250 0
-211 -209 250 0
213 212 215 0
213 -212 -215 0
-213 212 -215 0
-213 -212 215 0
214 212 253 0
214 -212 -253 0
-214 212 -253 0
-214 -212 253 0
216 215 218 0
216 -215 -218 0
-216 215 -218 0
-216 -215 218 0
217 215 256 0
217 -215 -256 0
-217 215 -256 0
-217 -215 256 0
219 218 221 0
219 -218 -221 0
-219 218 -221 0
-219 -218 221 0
220 218 259 0
220 -218 -259 0
-220 218 -259 0
-220 -218 259 0
222 221 224 0
222 -221 -224 0
-222 221 -224 0
-222 -221 224 0
223 221 262 0
223 -221 -262 0
-223 221 -262 0
-223 -221 262 0
225 224 227 0
225 -224 -227 0
-225 224 -227 0
-225 -224 227 0
226 224 265 0
226 -224 -265 0
-226 224 -265 0
-226 -224 265 0
228 227 230 0
228 -227 -230 0
-228 227 -230 0
-228 -227 230 0
229 227 268 0
229 -227 -268 0
-229 227 -268 0
-229 -227 268 0
231 230 233 0
231 -230 -233 0
-231 230 -233 0
-231 -230 233 0
232 230 271 0
232 -230 -271 0
-232 230 -271 0
-232 -230 271 0
234 233 236 0
234 -233 -236 0
-234 233 -236 0
-234 -233 236 0
235 233 274 0
235 -233 -274 0
-235 233 -274 0
-235 -233 274 0
237 236 239 0
237 -236 -239 0
-237 236 -239 0
-237 -236 239 0
238 236 277 0
238 -236 -277 0
-238 236 -277 0
-238 -236 277 0
240 239 242 0
240 -239 -242 0
-240 239 -242 0
-240 -239 242 0
241 239 280 0
241 -239 -280 0
-241 239 -280 0
-241 -239 280 0
243 242 245 0
243 -242 -245 0
-243 242 -245 0
-243 -242 245 0
244 242 283 0
244 -242 -283 0
-244 242 -283 0
-244 -242 283 0
246 245 286 0
246 -245 -286 0
-246 245 -286 0
-246 -245 286 0
248 247 250 0
248 -247 -250 0
-248 247 -250 0
-248 -247 250 0
249 247 288 0
249 -247 -288 0
-249 247 -288 0
-249 -247 288 0
251 250 253 0
251 -250 -253 0
-251 250 -253 0
-251 -250 253 0
252 250 291 0
252 -250 -291 0
-252 250 -291 0
-252 -250 291 0
254 253 256 0
254 -253 -256 0
-254 253 -256 0
-254 -253 256 0
255 253 294 0
255 -253 -294 0
-255 253 -294 0
-255 -253 294 0
257 256 259 0
257 -256 -259 0
-257 256 -259 0
-257 -256 259 0
258 256 297 0
258 -256 -297 0
-258 256 -297 0
-258 -256 297 0
260 259 262 0
260 -259 -262 0
-260 259 -262 0
-260 -259 262 0
261 259 300 0
261 -259 -300 0
-261 259 -300 0
-261 -259 300 0
263 262 265 0
263 -262 -265 0
-263 262 -265 0
-263 -262 265 0
264 262 303 0
264 -262 -303 0
-264 262 -303 0
-264 -262 303 0
266 265 268 0
266 -265 -268 0
-266 265 -268 0
-266 -265 268 0
267 265 306 0
267 -265 -306 0
-267 265 -306 0
-267 -265 306 0
269 268 271 0
269 -268 -271 0
-269 268 -271 0
-269 -268 271 0
270 268 309 0
270 -268 -309 0
-270 268 -309 0
-270 -268 309 0
272 271 274 0
272 -271 -274 0
-272 271 -274 0
-272 -271 274 0
273 271 312 0
273 -271 -312 0
-273 271 -312 0
-273 -271 312 0
275 274 277 0
275 -274 -277 0
-275 274 -277 0
-275 -274 277 0
276 274 315 0
276 -274 -315 0
-276 274 -315 0
-276 -274 315 0
278 277 280 0
278 -277 -280 0
-278 277 -280 0
-278 -277 280 0
279 277 318 0
279 -277 -318 0
-279 277 -318 0
-279 -277 318 0
281 280 283 0
281 -280 -283 0
-281 280 -283 0
-281 -280 283 0
282 280 321 0
282 -280 -321 0
-282 280 -321 0
-282 -280 321 0
284 283 286 0
284 -283 -286 0
-284 283 -286 0
-284 -283 286 0
285 283 324 0
285 -283 -324 0
-285 283 -324 0
-285 -283 324 0
287 286 327 0
287 -286 -327 0
-287 286 -327 0
-287 -286 327 0
289 288 291 0
289 -288 -291 0
-289 288 -291 0
-289 -288 291 0
290 288 329 0
290 -288 -329 0
-290 288 -329 0
-290 -288 329 0
292 291 294 0
292 -291 -294 0
-292 291 -294 0
-292 -291 294 0
293 291 332 0
293 -291 -332 0
-293 291 -332 0
-293 -291 332 0
295 294 297 0
295 -294 -297 0
-295 294 -297 0
-295 -294 297 0
296 294 335 0
296 -294 -335 0
-296 294 -335 0
-296 -294 335 0
298 297 300 0
298 -297 -300 0
-298 297 -300 0
-298 -297 300 0
299 297 338 0
299 -297 -338 0
-299 297 -338 0
-299 -297 338 0
301 300 303 0
301 -300 -303 0
-301 300 -303 0
-301 -300 303 0
302 300 341 0
302 -300 -341 0
-302 300 -341 0
-302 -300 341 0
304 303 306 0
304 -303 -306 0
-304 303 -306 0
-304 -303 306 0
305 303 344 0
305 -303 -344 0
-305 303 -344 0
-305 -303 344 0
307 306 309 0
307 -306 -309 0
-307 306 -309 0
-307 -306 309 0
308 306 347 0
308 -306 -347 0
-308 306 -347 0
-308 -306 347 0
310 309 312 0
310 -309 -312 0
-310 309 -312 0
-310 -309 312 0
311 309 350 0
311 -309 -350 0
-311 309 -350 0
-311 -309 350 0
313 312 315 0
313 -312 -315 0
-313 312 -315 0
-313 -312 315 0
314 312 353 0
314 -312 -353 0
-314 312 -353 0
-314 -312 353 0
316 315 318 0
316 -315 -318 0
-316 315 -318 0
-316 -315 318 0
317 315 356 0
317 -315 -356 0
-317 315 -356 0
-317 -315 356 0
319 318 321 0
319 -318 -321 0
-319 318 -321 0
-319 -318 321 0
320 318 359 0
320 -318 -359 0
-320 318 -359 0
-320 -318 359 0
322 321 324 0
322 -321 -324 0
-322 321 -324 0
-322 -321 324 0
323 321 362 0
323 -321 -362 0
-323 321 -362 0
-323 -321 362 0
325 324 327 0
325 -324 -327 0
-325 324 -327 0
-325 -324 327 0
326 324 365 0
326 -324 -365 0
-326 324 -365 0
-326 -324 365 0
328 327 368 0
328 -327 -368 0
-328 327 -368 0
-328 -327 368 0
330 329 332 0
330 -329 -332 0
-330 329 -332 0
-330 -329 332 0
331 329 370 0
331 -329 -370 0
-331 329 -370 0
-331 -329 370 0
333 332 335 0
333 -332 -335 0
-333 332 -335 0
-333 -332 335 0
334 332 373 0
334 -332 -373 0
-334 332 -373 0
-334 -332 373 0
336 335 338 0
336 -335 -338 0
-336 335 -338 0
-336 -335 338 0
337 335 376 0
337 -335 -376 0
-337 335 -376 0
-337 -335 376 0
339 338 341 0
339 -338 -341 0
-339 338 -341 0
-339 -338 341 0
340 338 379 0
340 -338 -379 0
-340 338 -379 0
-340 -338 379 0
342 341 344 0
342 -341 -344 0
-342 341 -344 0
-342 -341 344 0
343 341 382 0
343 -341 -382 0
-343 341 -382 0
-343 -341 382 0
345 344 347 0
345 -344 -347 0
-345 344 -347 0
-345 -344 347 0
346 344 385 0
346 -344 -385 0
-346 344 -385 0
-346 -344 385 0
348 347 350 0
348 -347 -350 0
-348 347 -350 0
-348 -347 350 0
349 347 388 0
349 -347 -388 0
-349 347 -388 0
-349 -347 388 0
351 350 353 0
351 -350 -353 0
-351 350 -353 0
-351 -350 353 0
352 350 391 0
352 -350 -391 0
-352 350 -391 0
-352 -350 391 0
354 353 356 0
354 -353 -356 0
-354 353 -356 0
-354 -353 356 0
355 353 394 0
355 -353 -394 0
-355 353 -394 0
-355 -353 394 0
357 356 359 0
357 -356 -359 0
-357 356 -359 0
-357 -356 359 0
358 356 397 0
358 -356 -397 0
-358 356 -397 0
-358 -356 397 0
360 359 362 0
360 -359 -362 0
-360 359 -362 0
-360 -359 362 0
361 359 400 0
361 -359 -400 0
-361 359 -400 0
-361 -359 400 0
363 362 365 0
363 -362 -365 0
-363 362 -365 0
-363 -362 365 0
364 362 403 0
364 -362 -403 0
-364 362 -403 0
-364 -362 403 0
366 365 368 0
366 -365 -368 0
-366 365 -368 0
-366 -365 368 0
367 365 406 0
367 -365 -406 0
-367 365 -406 0
-367 -365 406 0
369 368 409 0
369 -368 -409 0
-369 368 -409 0
-369 -368 409 0
371 370 373 0
371 -370 -373 0
-371 370 -373 0
-371 -370 373 0
372 370 411 0
372 -370 -411 0
-372 370 -411 0
-372 -370 411 0
374 373 376 0
374 -373 -376 0
-374 373 -376 0
-374 -373 376 0
375 373 414 0
375 -373 -414 0
-375 373 -414 0
-375 -373 414 0
377 376 379 0
377 -376 -379 0
-377 376 -379 0
-377 -376 379 0
378 376 417 0
378 -376 -417 0
-378 376 -417 0
-378 -376 417 0
380 379 382 0
380 -379 -382 0
-380 379 -382 0
-380 -379 382 0
381 379 420 0
381 -379 -420 0
-381 379 -420 0
-381 -379 420 0
383 382 385 0
383 -382 -385 0
-383 382 -385 0
-383 -382 385 0
384 382 423 0
384 -382 -423 0
-384 382 -423 0
-384 -382 423 0
386 385 388 0
386 -385 -388 0
-386 385 -388 0
-386 -385 388 0
387 385 426 0
387 -385 -426 0
-387 385 -426 0
-387 -385 426 0
389 388 391 0
389 -388 -391 0
-389 388 -391 0
-389 -388 391 0
390 388 429 0
390 -388 -429 0
-390 388 -429 0
-390 -388 429 0
392 391 394 0
392 -391 -394 0
-392 391 -394 0
-392 -391 394 0
393 391 432 0
393 -391 -432 0
-393 391 -432 0
-393 -391 432 0
395 394 397 0
395 -394 -397 0
-395 394 -397 0
-395 -394 397 0
396 394 435 0
396 -394 -435 0
-396 394 -435 0
-396 -394 435 0
398 397 400 0
398 -397 -400 0
-398 397 -400 0
-398 -397 400 0
399 397 438 0
399 -397 -438 0
-399 397 -438 0
-399 -397 438 0
401 400 403 0
401 -400 -403 0
-401 400 -403 0
-401 -400 403 0
402 400 441 0
402 -400 -441 0
-402 400 -441 0
-402 -400 441 0
404 403 406 0
404 -403 -406 0
-404 403 -406 0
-404 -403 406 0
405 403 444 0
405 -403 -444 0
-405 403 -444 0
-405 -403 444 0
407 406 409 0
407 -406 -409 0
-407 406 -409 0
-407 -406 409 0
408 406 447 0
408 -406 -447 0
-408 406 -447 0
-408 -406 447 0
410 409 450 0
410 -409 -450 0
-410 409 -450 0
-410 -409 450 0
412 411 414 0
412 -411 -414 0
-412 411 -414 0
-412 -411 414 0
413 411 452 0
413 -411 -452 0
-413 411 -452 0
-413 -411 452 0
415 414 417 0
415 -414 -417 0
-415 414 -417 0
-415 -414 417 0
416 414 455 0
416 -414 -455 0
-416 414 -455 0
-416 -414 455 0
418 417 420 0
418 -417 -420 0
-418 417 -420 0
-418 -417 420 0
419 417 458 0
419 -417 -458 0
-419 417 -458 0
-419 -417 458 0
421 420 423 0
421 -420 -423 0
-421 420 -423 0
-421 -420 423 0
422 420 461 0
422 -420 -461 0
-422 420 -461 0
-422 -420 461 0
424 423 426 0
424 -423 -426 0
-424 423 -426 0
-424 -423 426 0
425 423 464 0
425 -423 -464 0
-425 423 -464 0
-425 -423 464 0
427 426 429 0
427 -426 -429 0
-427 426 -429 0
-427 -426 429 0
428 426 467 0
428 -426 -467 0
-428 426 -467 0
-428 -426 467 0
430 429 432 0
430 -429 -432 0
-430 429 -432 0
-430 -429 432 0
431 429 470 0
431 -429 -470 0
-431 429 -470 0
-431 -429 470 0
433 432 435 0
433 -432 -435 0
-433 432 -435 0
-433 -432 435 0
434 432 473 0
434 -432 -473 0
-434 432 -473 0
-434 -432 473 0
436 435 438 0
436 -435 -438 0
-436 435 -438 0
-436 -435 438 0
437 435 476 0
437 -435 -476 0
-437 435 -476 0
-437 -435 476 0
439 438 441 0
439 -438 -441 0
-439 438 -441 0
-439 -438 441 0
440 438 479 0
440 -438 -479 0
-440 438 -479 0
-440 -438 479 0
442 441 444 0
442 -441 -444 0
-442 441 -444 0
-442 -441 444 0
443 441 482 0
443 -441 -482 0
-443 441 -482 0
-443 -441 482 0
445 444 447 0
445 -444 -447 0
-445 444 -447 0
-445 -444 447 0
446 444 485 0
446 -444 -485 0
-446 444 -485 0
-446 -444 485 0
448 447 450 0
448 -447 -450 0
-448 447 -450 0
-448 -447 450 0
449 447 488 0
449 -447 -488 0
-449 447 -488 0
-449 -447 488 0
451 450 491 0
451 -450 -491 0
-451 450 -491 0
-451 -450 491 0
453 452 455 0
453 -452 -455 0
-453 452 -455 0
-453 -452 455 0
454 452 493 0
454 -452 -493 0
-454 452 -493 0
-454 -452 493 0
456 455 458 0
456 -455 -458 0
-456 455 -458 0
-456 -455 458 0
457 455 496 0
457 -455 -496 0
-457 455 -496 0
-457 -455 496 0
459 458 461 0
459 -458 -461 0
-459 458 -461 0
-459 -458 461 0
460 458 499 0
460 -458 -499 0
-460 458 -499 0
-460 -458 499 0
462 461 464 0
462 -461 -464 0
-462 461 -464 0
-462 -461 464 0
463 461 502 0
463 -461 -502 0
-463 461 -502 0
-463 -461 502 0
465 464 467 0
465 -464 -467 0
-465 464 -467 0
-465 -464 467 0
466 464 505 0
466 -464 -505 0
-466 464 -505 0
-466 -464 505 0
468 467 470 0
468 -467 -470 0
-468 467 -470 0
-468 -467 470 0
469 467 508 0
469 -467 -508 0
-469 467 -508 0
-469 -467 508 0
471 470 473 0
471 -470 -473 0
-471 470 -473 0
-471 -470 473 0
472 470 511 0
472 -470 -511 0
-472 470 -511 0
-472 -470 511 0
474 473 476 0
474 -473 -476 0
-474 473 -476 0
-474 -473 476 0
475 473 514 0
475 -473 -514 0
-475 473 -514 0
-475 -473 514 0
477 476 479 0
477 -476 -479 0
-477 476 -479 0
-477 -476 479 0
478 476 517 0
478 -476 -517 0
-478 476 -517 0
-478 -476 517 0
480 479 482 0
480 -479 -482 0
-480 479 -482 0
-480 -479 482 0
481 479 520 0
481 -479 -520 0
-481 479 -520 0
-481 -479 520 0
483 482 485 0
483 -482 -485 0
-483 482 -485 0
-483 -482 485 0
484 482 523 0
484 -482 -523 0
-484 482 -523 0
-484 -482 523 0
486 485 488 0
486 -485 -488 0
-486 485 -488 0
-486 -485 488 0
487 485 526 0
487 -485 -526 0
-487 485 -526 0
-487 -485 526 0
489 488 491 0
489 -488 -491 0
-489 488 -491 0
-489 -488 491 0
490 488 529 0
490 -488 -529 0
-490 488 -529 0
-490 -488 529 0
492 491 532 0
492 -491 -532 0
-492 491 -532 0
-492 -491 532 0
494 493 496 0
494 -493 -496 0
-494 493 -496 0
-494 -493 496 0
495 493 534 0
495 -493 -534 0
-495 493 -534 0
-495 -493 534 0
497 496 499 0
497 -496 -499 0
-497 496 -499 0
-497 -496 499 0
498 496 536 0
498 -496 -536 0
-498 496 -536 0
-498 -496 536 0
500 499 502 0
500 -499 -502 0
-500 499 -502 0
-500 -499 502 0
501 499 538 0
501 -499 -538 0
-501 499 -538 0
-501 -499 538 0
503 502 505 0
503 -502 -505 0
-503 502 -505 0
-503 -502 505 0
504 502 540 0
504 -502 -540 0
-504 502 -540 0
-504 -502 540 0
506 505 508 0
506 -505 -508 0
-506 505 -508 0
-506 -505 508 0
507 505 542 0
507 -505 -542 0
-507 505 -542 0
-507 -505 542 0
509 508 511 0
509 -508 -511 0
-509 508 -511 0
-509 -508 511 0
510 508 544 0
510 -508 -544 0
-510 508 -544 0
-510 -508 544 0
512 511 514 0
512 -511 -514 0
-512 511 -514 0
-512 -511 514 0
513 511 546 0
513 -511 -546 0
-513 511 -546 0
-513 -511 546 0
515 514 517 0
515 -514 -517 0
-515 514 -517 0
-515 -514 517 0
516 514 548 0
516 -514 -548 0
-516 514 -548 0
-516 -514 548 0
518 517 520 0
518 -517 -520 0
-518 517 -520 0
-518 -517 520 0
519 517 550 0
519 -517 -550 0
-519 517 -550 0
-519 -517 550 0
521 520 523 0
521 -520 -523 0
-521 520 -523 0
-521 -520 523 0
522 520 552 0
522 -520 -552 0
-522 520 -552 0
-522 -520 552 0
524 523 526 0
524 -523 -526 0
-524 523 -526 0
-524 -523 526 0
525 523 554 0
525 -523 -554 0
-525 523 -554 0
-525 -523 554 0
527 526 529 0
527 -526 -529 0
-527 526 -529 0
-527 -526 529 0
528 526 556 0
528 -526 -556 0
-528 526 -556 0
-528 -526 556 0
530 529 532 0
530 -529 -532 0
-530 529 -532 0
-530 -529 532 0
531 529 558 0
531 -529 -558 0
-531 529 -558 0
-531 -529 558 0
533 532 560 0
533 -532 -560 0
-533 532 -560 0
-533 -532 560 0
535 534 536 0
535 -534 -536 0
-535 534 -536 0
-535 -534 536 0
537 536 538 0
537 -536 -538 0
-537 536 -538 0
-537 -536 538 0
539 538 540 0
539 -538 -540 0
-539 538 -540 0
-539 -538 540 0
541 540 542 0
541 -540 -542 0
-541 540 -542 0
-541 -540 542 0
543 542 544 0
543 -542 -544 0
-543 542 -544 0
-543 -542 544 0
545 544 546 0
545 -544 -546 0
-545 544 -546 0
-545 -544 546 0
547 546 548 0
547 -546 -548 0
-547 546 -548 0
-547 -546 548 0
549 548 550 0
549 -548 -550 0
-549 548 -550 0
-549 -548 550 0
551 550 552 0
551 -550 -552 0
-551 550 -552 0
-551 -550 552 0
553 552 554 0
553 -552 -554 0
-553 552 -554 0
-553 -552 554 0
555 554 556 0
555 -554 -556 0
-555 554 -556 0
-555 -554 556 0
557 556 558 0
557 -556 -558 0
-557 556 -558 0
-557 -556 558 0
559 558 560 0
559 -558 -560 0
-559 558 -560 0
-559 -558 560 0
